32      4       
10      10      10      10      
0       0       0       0       0       3       2       3       7       
9       0       1       1       1       4       6       9       13      14      
5       1       4       0       7       1       4       
4       6       0       3       4       1       5       
1       0       1       3       3       5       8       9       10      11      12      
7       1       0       4       4       4       10      11      12      24      
8       5       0       3       5       4       12      13      14      19      
7       0       5       10      6       5       16      19      23      24      27      
4       6       0       3       3       4       16      19      23      24      
7       2       5       0       2       3       15      19      27      
2       4       8       7       0       3       16      23      27      
1       4       7       0       6       2       15      27      
3       0       4       5       3       2       15      27      
3       5       0       1       7       2       17      24      
5       4       4       0       5       1       16      
7       0       1       3       1       1       17      
2       6       3       5       0       2       18      22      
5       3       6       6       0       2       20      26      
7       4       5       0       3       1       20      
6       3       0       8       5       2       21      31      
5       5       4       0       2       3       25      29      30      
9       4       0       4       2       3       28      30      31      
6       3       0       4       4       2       25      29      
4       5       3       0       1       1       25      
1       3       0       1       5       1       28      
8       0       3       6       7       1       29      
2       6       3       4       0       1       29      
8       3       6       3       0       1       32      
9       3       0       3       3       1       32      
10      6       5       0       4       1       32      
8       0       2       1       7       1       32      
0       0       0       0       0       0       
